c
c start with comments
c
p cnf 37 35
-33 3 -37 -14 0
-38 -6 -31 0
31 -11 0
-14 -16 11 -7 1 0
18 -28 22 0
28 -15 6 13 19 0
19 -28 25 26 29 23 0
-32 35 19 -2 0
-29 2 -9 21 0
19 -6 -10 0
38 -6 -32 26 20 0
-30 29 3 -27 0
6 -25 20 21 0
12 6 -35 0
-29 18 37 16 -15 34 0
20 -36 -33 0
-20 12 15 0
17 -4 25 16 12 0
-2 -37 -1 0
18 21 30 0
-38 -33 -32 0
34 -1 -10 0
-26 -13 0
4 33 0
2 19 -37 -32 0
-34 -23 0
30 -36 10 -28 0
17 35 -39 0
32 7 0
6 11 19 -36 0
36 -18 0
12 -16 -22 -39 0
22 10 17 38 12 -8 0
-20 -35 22 0
29 10 -31 20 0